id: 1903
name: dfl001
group: netlib
method: 2

Gurobi 7.0.2 (linux64, Matlab) logging started Mon Mar 26 10:47:10 2018


Gurobi 7.0.2 (linux64) logging started Mon Mar 26 10:47:10 2018

Optimize a model with 6071 rows, 12230 columns and 35632 nonzeros
Coefficient statistics:
  Matrix range     [8e-02, 2e+00]
  Objective range  [6e+02, 4e+07]
  Bounds range     [4e+00, 1e+02]
  RHS range        [1e+00, 1e+02]
Presolve removed 2367 rows and 3396 columns
Presolve time: 0.04s
Presolved: 3704 rows, 8834 columns, 30981 nonzeros

Ordering time: 0.07s

Barrier statistics:
 AA' NZ     : 3.681e+04
 Factor NZ  : 8.918e+05 (roughly 12 MBytes of memory)
 Factor Ops : 4.453e+08 (less than 1 second per iteration)
 Threads    : 4

                  Objective                Residual
Iter       Primal          Dual         Primal    Dual     Compl     Time
   0   1.41686993e+12 -1.35970732e+08  1.49e+04 0.00e+00  2.43e+08     0s
   1   8.16752613e+11 -3.21008110e+09  8.58e+03 1.88e+05  1.39e+08     0s
   2   1.31819660e+11 -4.46372821e+09  1.32e+03 8.19e+04  2.45e+07     0s
   3   3.28617538e+10 -2.68350607e+09  2.90e+02 1.49e+04  5.69e+06     0s
   4   3.35197806e+09 -1.00702967e+09  1.88e+01 3.09e+03  5.91e+05     0s
   5   5.99914807e+08 -5.46237627e+08  2.44e+00 1.79e+03  1.41e+05     0s
   6   4.36165325e+08 -2.09551014e+08  1.67e+00 6.87e+02  7.63e+04     0s
   7   2.20524613e+08 -1.35860646e+08  7.99e-01 4.06e+02  4.14e+04     0s
   8   1.20864156e+08 -6.75476222e+07  4.08e-01 1.73e+02  2.15e+04     0s
   9   5.33088997e+07 -2.52845961e+07  1.48e-01 6.53e+01  8.87e+03     0s
  10   2.65202143e+07 -6.02455910e+06  6.13e-02 2.23e+01  3.65e+03     0s
  11   1.65359008e+07  4.35987736e+06  2.06e-02 6.44e+00  1.36e+03     0s
  12   1.28801522e+07  9.48933735e+06  5.31e-03 1.18e+00  3.75e+02     0s
  13   1.19812085e+07  1.08203578e+07  2.05e-03 1.90e-01  1.28e+02     0s
  14   1.17414647e+07  1.10375752e+07  1.30e-03 4.99e-02  7.73e+01     0s
  15   1.14318595e+07  1.11733600e+07  3.79e-04 3.73e-09  2.83e+01     0s
  16   1.13288447e+07  1.12331362e+07  1.19e-04 7.45e-09  1.05e+01     0s
  17   1.12944068e+07  1.12515602e+07  4.86e-05 7.45e-09  4.68e+00     0s
  18   1.12797945e+07  1.12573913e+07  2.14e-05 7.45e-09  2.45e+00     0s
  19   1.12711719e+07  1.12632853e+07  6.87e-06 7.45e-09  8.60e-01     0s
  20   1.12678216e+07  1.12654948e+07  1.73e-06 3.73e-09  2.53e-01     0s
  21   1.12666993e+07  1.12662603e+07  3.88e-07 1.12e-08  4.75e-02     0s
  22   1.12664553e+07  1.12663675e+07  2.95e-06 7.45e-09  9.43e-03     0s
  23   1.12664176e+07  1.12663903e+07  8.88e-07 7.45e-09  2.91e-03     0s
  24   1.12664056e+07  1.12663953e+07  3.81e-07 7.45e-09  1.10e-03     1s
  25   1.12663974e+07  1.12663958e+07  3.60e-07 7.45e-09  1.76e-04     1s
  26   1.12663961e+07  1.12663960e+07  1.83e-07 7.45e-09  1.16e-05     1s
  27   1.12663960e+07  1.12663960e+07  3.16e-08 7.45e-09  4.25e-07     1s
  28   1.12663960e+07  1.12663960e+07  4.75e-09 7.45e-09  2.56e-09     1s

Barrier solved model in 28 iterations and 0.57 seconds
Optimal objective 1.12663960e+07

Crossover log...

       0 DPushes remaining with DInf 2.4807860e-06                 1s

     141 PPushes remaining with PInf 0.0000000e+00                 1s
       0 PPushes remaining with PInf 0.0000000e+00                 1s

  Push phase complete: Pinf 0.0000000e+00, Dinf 3.3026154e-06      1s

Iteration    Objective       Primal Inf.    Dual Inf.      Time
    1686    1.1266396e+07   0.000000e+00   0.000000e+00      1s
    1686    1.1266396e+07   0.000000e+00   0.000000e+00      1s

Solved in 1686 iterations and 0.68 seconds
Optimal objective  1.126639605e+07
status: OPTIMAL
